Si2 diamond structure
1.0
5.4307 0.0000 0.0000
0.0000 5.4307 0.0000
0.0000 0.0000 5.4307
Si
2
Direct
0.0000000000000000  0.0000000000000000  0.0000000000000000
0.2500000000000000  0.2500000000000000  0.2500000000000000
