Graphene structure
1.0
2.4560 0.0000 0.0000
-1.2280 2.1270 0.0000
0.0000 0.0000 6.6960
C
2
Direct
0.0000000000000000  0.0000000000000000  0.2500000000000000
0.3333333333333333  0.6666666666666666  0.2500000000000000
