Fe bcc structure
1.0
2.8665 0.0000 0.0000
0.0000 2.8665 0.0000
0.0000 0.0000 2.8665
Fe
1
Direct
0.0000000000000000  0.0000000000000000  0.0000000000000000
